CMPL model generation - running

CMPL version: 1.11.0
Authors: Thomas Schleiff, Mike Steglich
Distributed under the GPLv3 

create model instance ...
write model instance ...
CMPL model generation - finished

Solver - running


Welcome to IBM(R) ILOG(R) CPLEX(R) Interactive Optimizer 12.7.1.0
  with Simplex, Mixed Integer & Barrier Optimizers
5725-A06 5725-A29 5724-Y48 5724-Y49 5724-Y54 5724-Y55 5655-Y21
Copyright IBM Corp. 1988, 2017.  All Rights Reserved.

Type 'help' for a list of available commands.
Type 'help' followed by a command name for more
information on commands.

CPLEX> Specified objective sense: MINIMIZE
Selected objective  name:  line[1]
Selected RHS        name:  RHS
Selected bound      name:  BOUND
Problem '/tmp/cmpl.T24661.mps' read.
Read time = 0.06 sec. (10.14 ticks)
CPLEX> CPXPARAM_Read_APIEncoding                        "UTF-8"
Tried aggregator 3 times.
MIP Presolve eliminated 23790 rows and 37156 columns.
MIP Presolve modified 425 coefficients.
Aggregator did 952 substitutions.
Reduced MIP has 3180 rows, 4347 columns, and 12857 nonzeros.
Reduced MIP has 4137 binaries, 0 generals, 0 SOSs, and 0 indicators.
Presolve time = 0.07 sec. (50.77 ticks)
Found incumbent of value 2340.701823 after 0.13 sec. (91.04 ticks)
Probing time = 0.01 sec. (2.88 ticks)
Tried aggregator 1 time.
MIP Presolve eliminated 0 rows and 3 columns.
Reduced MIP has 3180 rows, 4344 columns, and 12851 nonzeros.
Reduced MIP has 4344 binaries, 0 generals, 0 SOSs, and 0 indicators.
Presolve time = 0.01 sec. (10.63 ticks)
Probing fixed 35 vars, tightened 0 bounds.
Probing time = 0.01 sec. (5.71 ticks)
Clique table members: 8087.
MIP emphasis: balance optimality and feasibility.
MIP search method: dynamic search.
Parallel mode: none, using 1 thread.
Root relaxation solution time = 0.01 sec. (10.65 ticks)

        Nodes                                         Cuts/
   Node  Left     Objective  IInf  Best Integer    Best Bound    ItCnt     Gap

*     0+    0                         2340.7018       -6.0430           100.26%
      0     0      602.0690     2     2340.7018      602.0690      467   74.28%
*     0+    0                          604.0686      602.0690             0.33%
*     0+    0                          602.1147      602.0690             0.01%

Root node processing (before b&c):
  Real time             =    0.20 sec. (139.14 ticks)
Sequential b&c:
  Real time             =    0.00 sec. (0.00 ticks)
                          ------------
Total (root+branch&cut) =    0.20 sec. (139.14 ticks)

Solution pool: 3 solutions saved.

MIP - Integer optimal, tolerance (0.0001/1e-06):  Objective =  6.0211468900e+02
Current MIP best bound =  6.0206897500e+02 (gap = 0.045714, 0.01%)
Solution time =    0.21 sec.  Iterations = 467  Nodes = 0 (1)
Deterministic time = 139.26 ticks  (679.07 ticks/sec)

CPLEX> Incumbent solution written to file '/tmp/cmpl.T24661.gsol'.
CPLEX> 
CMPL: Time used for model generation: 1 seconds
CMPL: Time used for solving the model: 1 seconds


Solution written to ASCII file: results/output_generated_conf_0.8/2017-10-02-5/fair-nonlinear.sol

Solver - finished
